100 6 100
41 37 29 30 91 59 54 30 19 49 13 36 74 4 38 46 27 15 64 70 89 7 39 67 89 37 98 42 35 33 35 72 62 65 15 74 20 98 93 21 11 30 95 67 20 93 19 47 8 83 69 97 42 60 17 31 97 15 73 84 48 60 9 62 26 24 36 98 74 30 19 37 60 66 4 32 59 23 79 19 58 69 61 86 84 58 53 9 95 53 70 4 15 96 80 52 94 55 34 65 
